nBusiness = 76;
nMeetings = 195;
nTables = 14;
nTotalSlots = 22;
nMorningSlots = 12;

requested = [|3, 9,1, 
|4, 18,3, 
|4, 19,1, 
|4, 29,1, 
|4, 39,1, 
|9, 1,1, 
|9, 2,1, 
|10, 19,3, 
|10, 29,3, 
|10, 31,3, 
|10, 40,3, 
|14, 8,1, 
|14, 12,1, 
|14, 15,1, 
|14, 20,2, 
|14, 25,2, 
|14, 26,1, 
|14, 34,2, 
|18, 1,2, 
|18, 3,2, 
|18, 16,2, 
|18, 20,1, 
|18, 22,2, 
|18, 31,1, 
|18, 36,1, 
|18, 45,1, 
|20, 30,3, 
|20, 31,3, 
|21, 17,3, 
|21, 29,1, 
|22, 51,1, 
|22, 53,1, 
|26, 2,1, 
|28, 64,3, 
|28, 66,3, 
|29, 8,3, 
|29, 9,3, 
|29, 13,3, 
|29, 15,3, 
|29, 20,3, 
|29, 22,3, 
|29, 36,3, 
|29, 42,3, 
|29, 53,3, 
|30, 3,2, 
|30, 10,2, 
|30, 12,2, 
|30, 14,1, 
|30, 18,1, 
|30, 19,1, 
|30, 22,2, 
|30, 29,1, 
|30, 40,2, 
|30, 51,2, 
|30, 53,1, 
|31, 29,3, 
|31, 30,3, 
|32, 14,3, 
|32, 50,3, 
|32, 59,3, 
|33, 4,2, 
|33, 7,1, 
|33, 13,1, 
|33, 19,2, 
|33, 26,2, 
|33, 57,2, 
|33, 58,3, 
|33, 63,3, 
|33, 66,3, 
|36, 53,3, 
|38, 2,1, 
|38, 7,1, 
|38, 15,3, 
|38, 19,1, 
|38, 21,3, 
|38, 22,3, 
|38, 23,3, 
|38, 31,1, 
|38, 36,1, 
|38, 37,1, 
|38, 42,1, 
|39, 25,1, 
|39, 29,1, 
|39, 33,1, 
|39, 38,2, 
|39, 52,2, 
|39, 60,2, 
|41, 17,1, 
|44, 30,3, 
|44, 41,1, 
|44, 43,1, 
|47, 26,3, 
|47, 45,3, 
|48, 18,2, 
|48, 19,2, 
|48, 20,2, 
|48, 22,2, 
|48, 23,2, 
|48, 25,2, 
|48, 29,2, 
|48, 33,2, 
|48, 36,2, 
|48, 37,2, 
|51, 1,3, 
|51, 2,3, 
|51, 3,3, 
|51, 76,3, 
|53, 1,3, 
|53, 2,3, 
|53, 3,3, 
|53, 10,1, 
|53, 30,1, 
|53, 76,3, 
|54, 1,3, 
|54, 2,3, 
|54, 3,3, 
|54, 20,1, 
|54, 31,1, 
|54, 37,1, 
|54, 40,1, 
|54, 41,1, 
|54, 43,1, 
|54, 46,1, 
|54, 76,3, 
|56, 1,3, 
|56, 2,3, 
|56, 3,3, 
|56, 76,3, 
|58, 3,1, 
|58, 17,1, 
|58, 24,1, 
|58, 29,1, 
|58, 38,1, 
|58, 40,3, 
|58, 41,2, 
|58, 63,3, 
|58, 64,3, 
|58, 66,3, 
|58, 67,3, 
|58, 68,3, 
|58, 69,3, 
|58, 70,3, 
|58, 71,3, 
|58, 72,3, 
|58, 73,3, 
|59, 1,3, 
|59, 2,3, 
|59, 3,3, 
|59, 76,3, 
|60, 1,3, 
|60, 2,3, 
|60, 3,3, 
|60, 76,3, 
|61, 3,3, 
|61, 13,3, 
|61, 19,3, 
|61, 22,3, 
|61, 25,3, 
|61, 29,3, 
|61, 36,3, 
|61, 38,3, 
|61, 51,3, 
|61, 57,3, 
|62, 1,1, 
|62, 3,1, 
|62, 15,1, 
|62, 16,1, 
|62, 17,1, 
|62, 18,1, 
|62, 19,1, 
|62, 20,1, 
|62, 21,1, 
|62, 22,1, 
|62, 23,1, 
|62, 24,1, 
|64, 16,3, 
|64, 17,3, 
|64, 19,3, 
|64, 21,3, 
|64, 23,3, 
|64, 25,3, 
|64, 32,3, 
|64, 33,3, 
|64, 38,3, 
|64, 39,3, 
|64, 40,3, 
|64, 41,3, 
|64, 43,3, 
|65, 6,3, 
|65, 7,3, 
|65, 9,3, 
|65, 10,3, 
|65, 11,3, 
|65, 27,3, 
|65, 42,3, 
|];

meetingsxBusiness = [{1,7,20,105,109,115,126,147,151,165},
{1,8,34,72,106,110,116,127,148,152},
{1,2,21,46,107,111,117,128,130,149,153,155,166},
{1,3,4,5,6,62},
{1},
{1,190},
{1,63,73,191},
{1,13,37},
{1,2,7,8,38,192},
{1,9,10,11,12,47,112,193},
{1,194},
{1,14,48},
{1,39,64,156},
{1,13,14,15,16,17,18,19,49,59},
{1,15,40,74,167},
{1,22,168,177},
{1,30,89,131,169,178},
{1,3,20,21,22,23,24,25,26,27,50,95,170},
{1,4,9,51,65,75,96,157,171,179},
{1,16,23,28,29,41,97,118,172},
{1,30,31,76,173,180},
{1,24,32,33,42,52,77,98,158,174},
{1,78,99,175,181},
{1,132,176},
{1,17,83,100,159,182},
{1,18,34,66,93},
{1,195},
{1,35,36},
{1,5,10,31,37,38,39,40,41,42,43,44,45,53,57,84,101,133,160},
{1,28,46,47,48,49,50,51,52,53,54,55,56,58,90,113},
{1,11,25,29,57,58,79,119},
{1,59,60,61,183},
{1,62,63,64,65,66,67,68,69,70,85,102,184},
{1,19},
{1},
{1,26,43,71,80,103,161},
{1,81,104,120},
{1,72,73,74,75,76,77,78,79,80,81,82,86,134,162,185},
{1,6,83,84,85,86,87,88,186},
{1,12,54,121,135,187},
{1,89,91,122,136,188},
{1,44,82,196},
{1,92,123,189},
{1,90,91,92},
{1,27,94},
{1,124},
{1,93,94},
{1,95,96,97,98,99,100,101,102,103,104},
{1},
{1,60},
{1,32,55,105,106,107,108,163},
{1,87},
{1,33,45,56,71,109,110,111,112,113,114},
{1,115,116,117,118,119,120,121,122,123,124,125},
{1},
{1,126,127,128,129},
{1,67,164},
{1,68,130,131,132,133,134,135,136,137,138,139,140,141,142,143,144,145,146},
{1,61,147,148,149,150},
{1,88,151,152,153,154},
{1,155,156,157,158,159,160,161,162,163,164},
{1,165,166,167,168,169,170,171,172,173,174,175,176},
{1,69,137},
{1,35,138,177,178,179,180,181,182,183,184,185,186,187,188,189},
{1,190,191,192,193,194,195,196},
{1,36,70,139},
{1,140},
{1,141},
{1,142},
{1,143},
{1,144},
{1,145},
{1,146},
{1},
{1},
{1,108,114,125,129,150,154}];

nMeetingsBusiness = [9,9,12,5,0,1,3,2,5,7,1,2,3,9,4,3,5,12,9,8,5,9,4,2,5,4,1,2,18,15,7,4,12,1,0,6,3,15,8,5,5,3,3,3,2,1,2,10,0,1,7,1,10,11,0,4,2,18,5,5,10,12,2,15,7,3,1,1,1,1,1,1,1,0,0,6];

forbidden = [{5},
{0},
{0},
{0},
{12},
{13},
{4},
{11},
{15},
{4},
{13},
{16},
{0},
{16},
{0},
{12},
{0},
{6},
{0},
{0},
{17},
{0},
{0},
{0},
{0},
{0},
{14},
{14},
{0},
{18},
{19},
{0},
{0},
{0},
{0},
{7},
{7},
{0},
{13},
{0},
{18},
{15},
{6},
{17},
{0},
{5},
{11},
{0},
{0},
{0},
{0},
{0},
{0},
{0},
{0},
{0},
{0},
{0},
{0},
{0},
{0},
{0},
{0},
{0},
{0},
{0},
{0},
{0},
{0},
{0},
{0},
{0},
{0},
{0},
{0},
{0}];

fixed = [0,0,0,0,0,0,0,0,0,0,0,0,0,0,0,0,0,0,0,0,0,0,0,0,0,0,0,0,0,0,0,0,0,0,0,0,0,0,0,0,0,0,0,0,0,0,0,0,0,0,0,0,0,0,0,0,0,0,0,0,0,0,0,0,0,0,0,0,0,0,0,0,0,0,0,0,0,0,0,0,0,0,0,0,0,0,0,0,0,0,0,0,0,0,0,0,0,0,0,0,0,0,0,0,0,0,0,0,0,0,0,0,0,0,0,0,0,0,0,0,0,0,0,0,0,0,0,0,0,0,0,0,0,0,0,0,0,0,0,0,0,0,0,0,0,0,0,0,0,0,0,0,0,0,0,0,0,0,0,0,0,0,0,0,0,0,0,0,0,0,0,0,0,0,0,0,0,0,0,0,0,0,0,0,0,0,0,0,0,0,0,0,0,0,0];

precedences = [{},
{},
{},
{},
{},
{},
{},
{},
{},
{},
{},
{},
{},
{},
{},
{},
{},
{},
{},
{},
{},
{},
{},
{},
{},
{},
{},
{},
{},
{},
{},
{},
{},
{},
{},
{},
{},
{},
{},
{},
{},
{},
{},
{},
{},
{},
{},
{},
{},
{},
{},
{},
{},
{},
{},
{},
{},
{},
{},
{},
{},
{},
{},
{},
{},
{},
{},
{},
{},
{},
{},
{},
{},
{},
{},
{},
{},
{},
{},
{},
{},
{},
{},
{},
{},
{},
{},
{},
{},
{},
{},
{},
{},
{},
{},
{},
{},
{},
{},
{},
{},
{},
{},
{},
{},
{},
{},
{},
{},
{},
{},
{},
{},
{},
{},
{},
{},
{},
{},
{},
{},
{},
{},
{},
{},
{},
{},
{},
{},
{},
{},
{},
{},
{},
{},
{},
{},
{},
{},
{},
{},
{},
{},
{},
{},
{},
{},
{},
{},
{},
{},
{},
{},
{},
{},
{},
{},
{},
{},
{},
{},
{},
{},
{},
{},
{},
{},
{},
{},
{},
{},
{},
{},
{},
{},
{},
{},
{},
{},
{},
{},
{},
{},
{},
{},
{},
{},
{},
{},
{},
{},
{},
{},
{},
{}];

